100
128
15
17
9
3
19
24
11
46
32
25
62
42
29
9
62
61
23
15
42
15
19
52
44
23
43
18
27
1
46
54
49
56
23
14
1
32
29
1
15
21
15
54
47
25
54
58
59
27
41
56
27
43
36
47
15
30
16
41
30
3
30
26
20
15
48
18
35
29
2
20
55
32
1
18
21
27
48
53
22
40
21
37
29
20
27
26
17
40
18
18
23
24
31
58
26
48
44
54
42
31